155 156 159 160 162 161 113 112 114 115 116 117 106 105 104 103 547 546 545 544 543 541 542 107 108 109 110 111 172 173 174 175 170 171 169 168 163 167 166 164 165 201 200 199 198 202 204 203 208 207 206 205 197 196 195 194 209 210 211 212 213 214 215 216 217 223 224 222 221 220 218 219 193 184 185 183 181 180 179 182 186 188 187 178 177 176 540 538 539 537 536 535 487 534 488 489 530 531 532 533 231 230 229 228 227 189 190 192 191 226 225 232 233 234 235 236 528 529 490 486 485 484 483 482 481 480 479 478 477 476 475 493 524 525 492 491 526 523 522 521 520 517 516 515 514 527 512 513 511 510 509 237 240 239 238 246 247 245 244 243 242 241 248 249 250 251 252 254 253 255 256 257 300 301 302 508 507 506 307 303 304 306 305 318 317 319 320 321 297 298 299 258 259 260 261 262 263 264 265 266 267 271 272 269 268 270 296 295 294 293 291 292 273 274 275 276 277 290 289 288 278 279 282 281 280 287 286 285 284 283 334 335 336 337 338 339 333 332 331 330 340 341 342 343 344 345 364 346 347 348 349 350 351 352 413 414 415 416 420 421 422 423 424 425 426 427 428 429 430 437 438 436 435 434 433 432 431 382 386 387 385 383 384 410 418 419 417 411 412 356 355 353 354 357 358 359 361 362 363 360 401 402 403 400 404 409 405 406 408 407 399 398 397 394 393 392 391 388 389 390 381 380 379 378 377 376 375 395 396 371 372 370 369 368 365 367 366 329 328 327 326 325 324 323 322 373 374 315 314 316 313 312 451 311 310 309 308 505 504 503 502 498 501 500 499 452 453 440 441 450 449 448 447 446 442 445 444 443 439 454 455 456 457 458 459 460 461 462 463 497 519 518 495 494 472 473 474 471 470 496 464 465 469 468 467 466 571 572 573 0 1 2 3 4 5 6 7 8 9 10 11 14 15 16 17 18 570 569 568 19 20 13 12 23 22 21 24 25 26 27 28 29 31 30 32 33 34 35 36 37 38 40 41 39 42 43 48 47 44 45 46 555 556 557 558 559 560 561 562 563 565 567 566 564 549 548 550 551 101 102 100 552 553 554 99 98 96 95 97 94 93 92 91 50 84 51 52 49 54 53 55 56 83 82 57 58 59 60 61 63 64 62 79 80 81 87 86 85 90 89 88 78 77 76 75 74 73 119 118 120 121 122 123 71 72 65 66 67 68 70 69 124 125 126 127 128 129 130 131 132 133 137 138 139 140 141 136 135 134 158 145 144 143 142 151 150 149 152 148 147 146 157 153 154